4 11 100 1 2
0 200
 1 40.00 50.00 0.00 0.00 0.00 0 0 0 240
 2 25.00 85.00 10.00 20.00 40.00 1 1 1 125 191
 3 22.00 75.00 10.00 30.00 19.00 1 1 1 32 97
 4 22.00 85.00 10.00 10.00 9.00 1 1 1 101 146
 5 20.00 80.00 10.00 40.00 10.00 1 1 1 71 193
 6 20.00 85.00 10.00 20.00 20.00 1 1 1 40 113
 7 18.00 75.00 10.00 20.00 23.00 1 1 1 55 164
 8 15.00 75.00 10.00 20.00 9.00 1 1 1 69 118
 9 15.00 80.00 10.00 10.00 21.00 1 1 1 56 155
 10 10.00 35.00 10.00 20.00 6.00 1 1 1 51 160
 11 10.00 40.00 10.00 30.00 10.00 1 1 1 90 177
 12 8.00 40.00 10.00 40.00 13.00 1 1 1 33 152
 13 8.00 45.00 10.00 20.00 6.00 1 1 1 49 108
 14 5.00 35.00 10.00 10.00 16.00 1 1 1 62 191
 15 5.00 45.00 10.00 10.00 30.00 1 1 1 35 117
 16 2.00 40.00 10.00 20.00 20.00 1 1 1 39 161
 17 0.00 40.00 10.00 20.00 10.00 1 1 1 59 114
 18 0.00 45.00 10.00 20.00 14.00 1 1 1 60 189
 19 44.00 5.00 10.00 20.00 17.00 1 1 1 79 124
 20 42.00 10.00 10.00 40.00 10.00 1 1 1 58 115
 21 42.00 15.00 10.00 10.00 10.00 1 1 1 111 162
 22 40.00 5.00 10.00 10.00 20.00 1 1 1 52 111
 23 40.00 15.00 10.00 40.00 19.00 1 1 1 55 158
 24 38.00 5.00 10.00 30.00 30.00 1 1 1 45 164
 25 38.00 15.00 10.00 10.00 20.00 1 1 1 128 194
 26 35.00 5.00 10.00 20.00 40.00 1 1 1 54 184
 27 95.00 30.00 10.00 30.00 27.00 1 1 1 105 154
 28 95.00 35.00 10.00 20.00 5.00 1 1 1 57 172
 29 92.00 30.00 10.00 10.00 20.00 1 1 1 55 120
 30 90.00 35.00 10.00 10.00 40.00 1 1 1 52 112
 31 88.00 30.00 10.00 10.00 20.00 1 1 1 52 159
 32 88.00 35.00 10.00 20.00 10.00 1 1 1 50 110
 33 87.00 30.00 10.00 10.00 10.00 1 1 1 116 175
 34 85.00 25.00 10.00 10.00 7.00 1 1 1 51 178
 35 85.00 35.00 10.00 30.00 16.00 1 1 1 100 151
 36 67.00 85.00 10.00 20.00 14.00 1 1 1 61 185
 37 65.00 85.00 10.00 40.00 26.00 1 1 1 43 186
 38 65.00 82.00 10.00 10.00 28.00 1 1 1 113 164
 39 62.00 80.00 10.00 30.00 5.00 1 1 1 37 148
 40 60.00 80.00 10.00 10.00 23.00 1 1 1 36 191
 41 60.00 85.00 10.00 30.00 20.00 1 1 1 50 149
 42 58.00 75.00 10.00 20.00 40.00 1 1 1 48 165
 43 55.00 80.00 10.00 10.00 10.00 1 1 1 33 166
 44 55.00 85.00 10.00 20.00 3.00 1 1 1 117 168
 45 55.00 82.00 10.00 10.00 35.00 1 1 1 35 148
 46 20.00 82.00 10.00 10.00 2.00 1 1 1 37 177
 47 18.00 80.00 10.00 10.00 19.00 1 1 1 98 157
 48 2.00 45.00 10.00 10.00 16.00 1 1 1 38 109
 49 42.00 5.00 10.00 10.00 10.00 1 1 1 120 184
 50 42.00 12.00 10.00 10.00 10.00 1 1 1 79 158
 51 72.00 35.00 10.00 30.00 13.00 1 1 1 104 157
 52 55.00 20.00 10.00 19.00 20.00 1 1 1 69 126
 53 25.00 30.00 10.00 3.00 25.00 1 1 1 36 97
 54 20.00 50.00 10.00 5.00 3.00 1 1 1 57 154
 55 55.00 60.00 10.00 16.00 30.00 1 1 1 127 180
 56 30.00 60.00 10.00 16.00 10.00 1 1 1 95 214
 57 50.00 35.00 10.00 19.00 20.00 1 1 1 88 201
 58 30.00 25.00 10.00 23.00 10.00 1 1 1 82 139
 59 15.00 10.00 10.00 20.00 10.00 1 1 1 56 182
 60 10.00 20.00 10.00 19.00 20.00 1 1 1 42 125
 61 15.00 60.00 10.00 17.00 20.00 1 1 1 137 202
 62 45.00 65.00 10.00 9.00 20.00 1 1 1 55 106
 63 65.00 35.00 10.00 3.00 30.00 1 1 1 29 158
 64 65.00 20.00 10.00 6.00 10.00 1 1 1 39 108
 65 45.00 30.00 10.00 17.00 31.00 1 1 1 20 139
 66 35.00 40.00 10.00 16.00 23.00 1 1 1 11 140
 67 41.00 37.00 10.00 16.00 20.00 1 1 1 92 203
 68 64.00 42.00 10.00 9.00 8.00 1 1 1 28 141
 69 40.00 60.00 10.00 21.00 30.00 1 1 1 100 217
 70 31.00 52.00 10.00 27.00 9.00 1 1 1 9 134
 71 35.00 69.00 10.00 23.00 10.00 1 1 1 60 210
 72 65.00 55.00 10.00 14.00 30.00 1 1 1 52 107
 73 63.00 65.00 10.00 8.00 19.00 1 1 1 27 101
 74 2.00 60.00 10.00 5.00 30.00 1 1 1 65 118
 75 20.00 20.00 10.00 8.00 10.00 1 1 1 72 193
 76 5.00 5.00 10.00 16.00 13.00 1 1 1 60 117
 77 60.00 12.00 10.00 31.00 10.00 1 1 1 42 143
 78 23.00 3.00 10.00 7.00 10.00 1 1 1 52 180
 79 8.00 56.00 10.00 27.00 27.00 1 1 1 46 163
 80 6.00 68.00 10.00 30.00 20.00 1 1 1 54 153
 81 47.00 47.00 10.00 13.00 16.00 1 1 1 97 222
 82 49.00 58.00 10.00 10.00 20.00 1 1 1 80 121
 83 27.00 43.00 10.00 9.00 10.00 1 1 1 26 87
 84 37.00 31.00 10.00 14.00 10.00 1 1 1 19 87
 85 57.00 29.00 10.00 18.00 30.00 1 1 1 62 159
 86 63.00 23.00 10.00 2.00 10.00 1 1 1 76 127
 87 21.00 24.00 10.00 28.00 14.00 1 1 1 77 126
 88 12.00 24.00 10.00 13.00 9.00 1 1 1 68 141
 89 24.00 58.00 10.00 19.00 15.00 1 1 1 24 139
 90 67.00 5.00 10.00 25.00 10.00 1 1 1 105 177
 91 37.00 47.00 10.00 6.00 18.00 1 1 1 74 127
 92 49.00 42.00 10.00 13.00 40.00 1 1 1 151 212
 93 53.00 43.00 10.00 14.00 6.00 1 1 1 14 155
 94 61.00 52.00 10.00 3.00 17.00 1 1 1 69 208
 95 57.00 48.00 10.00 23.00 20.00 1 1 1 86 133
 96 56.00 37.00 10.00 6.00 30.00 1 1 1 20 84
 97 55.00 54.00 10.00 26.00 3.00 1 1 1 121 172
 98 4.00 18.00 10.00 35.00 3.00 1 1 1 112 157
 99 26.00 52.00 10.00 9.00 16.00 1 1 1 30 91
 100 26.00 35.00 10.00 15.00 20.00 1 1 1 37 146
 101 31.00 67.00 10.00 3.00 8.00 1 1 1 66 210
